(set-logic ALL)
(declare-fun var0 () String)
(assert (str.in_re var0 (re.++ (re.union (re.union (str.to_re "0") (str.to_re "111")) (re.union (str.to_re "2") (str.to_re "333"))) (re.++ (re.union (re.* (str.to_re "4")) (re.* (str.to_re "55"))) (re.++ (re.union (re.+ (str.to_re "666")) (re.+ (str.to_re "777"))) (re.++ (re.+ (re.union (str.to_re "8") (str.to_re "99"))) (re.++ (re.* (re.* (str.to_re "aa"))) (re.++ (re.+ (re.* (str.to_re "bbb"))) (re.++ (re.* (re.union (str.to_re "c") (str.to_re "ddd"))) (re.++ (re.* (re.+ (str.to_re "eee"))) (re.++ (re.+ (re.+ (str.to_re "fff"))) (re.union (re.union (str.to_re "g") (str.to_re "h")) (re.union (str.to_re "ii") (str.to_re "jjj"))))))))))))))
(assert (<= 76 (str.len var0)))
(check-sat)